SAT
-112 140 -62 -116 144 24 -61 -28 -97 92 -65 -39 102 27 -12 -90 11 122 30 -78 -94 -85 -3 98 134 32 88 -23 -59 1 136 -150 -113 118 -49 124 120 -18 43 -143 107 121 -111 73 -132 8 100 -71 -20 -148 38 45 -130 -19 -5 44 -54 110 13 91 -125 72 -137 -36 -95 34 -114 -138 -133 55 -22 149 -135 104 115 -29 -63 -82 145 -4 -123 33 17 -40 7 -87 -53 -52 -21 -147 -60 67 70 -25 -89 -142 -129 -56 -103 -58 81 -80 -10 66 -26 101 9 57 83 -77 -64 -31 -84 -86 -6 -127 -146 99 -131 -96 68 41 46 139 141 14 -128 106 -15 50 126 47 -117 -75 37 -16 -48 51 -93 79 76 -105 -74 -69 -109 -35 119 42 2 -108 0
